345
334
291
513
680
558
636
998
920
981
590
683
260
1149
2172
1204
478
625
1735
648
480
4392
3493
6048
6109
1450
10102
6747
218
1512
6009
13450
11197
14389
13448
18707
17057
1147
21239
11274
18624
13825
7458
17119
651
5987
13060
24849
10548
30123
5628
29406
30741
30733
35668
16156
1537
41406
40088
16061
35289
31003
47116
57711
9776
20793
22982
37881
45827
27890
45211
61247
8924
89688
50134
108387
107582
112167
119436
82379
63502
11678
31300
128075
119234
58558
17562
126659
77488
152065
119296
143711
137556
35090
152952
147616
116416
152365
44084
159445
